NAME : amtsp
TYPE : ATSP
DIMENSION : 5
EDGE_WEIGHT_TYPE : EXPLICIT
EDGE_WEIGHT_FORMAT : FULL_MATRIX
EDGE_WEIGHT_SECTION
0 175 201408 50655 202086 
0 0 543 593 903 
0 543 0 642 360 
0 593 642 0 282 
0 903 360 282 0 
